(set-info :smt-lib-version 2.6)
(set-logic QF_LRA)
(set-info :source | Clock Synchronization. Bruno Dutertre (bruno@csl.sri.com) |)
(set-info :category "industrial")
(set-info :status unsat)
(declare-fun x_0 () Real)
(declare-fun x_1 () Real)
(declare-fun x_2 () Real)
(declare-fun x_3 () Real)
(declare-fun x_4 () Real)
(declare-fun x_5 () Real)
(declare-fun x_6 () Real)
(declare-fun x_7 () Real)
(declare-fun x_8 () Real)
(declare-fun x_9 () Real)
(declare-fun x_10 () Real)
(declare-fun x_11 () Real)
(declare-fun x_12 () Real)
(declare-fun x_13 () Real)
(declare-fun x_14 () Real)
(declare-fun x_15 () Real)
(declare-fun x_16 () Real)
(declare-fun x_17 () Real)
(declare-fun x_18 () Real)
(declare-fun x_19 () Real)
(declare-fun x_20 () Real)
(declare-fun x_21 () Real)
(declare-fun x_22 () Real)
(declare-fun x_23 () Real)
(declare-fun x_24 () Real)
(declare-fun x_25 () Real)
(declare-fun x_26 () Real)
(declare-fun x_27 () Real)
(declare-fun x_28 () Real)
(declare-fun x_29 () Real)
(declare-fun x_30 () Real)
(declare-fun x_31 () Real)
(declare-fun x_32 () Real)
(declare-fun x_33 () Real)
(declare-fun x_34 () Real)
(declare-fun x_35 () Real)
(declare-fun x_36 () Real)
(declare-fun x_37 () Real)
(declare-fun x_38 () Real)
(declare-fun x_39 () Real)
(declare-fun x_40 () Real)
(declare-fun x_41 () Real)
(declare-fun x_42 () Real)
(declare-fun x_43 () Real)
(declare-fun x_44 () Real)
(declare-fun x_45 () Real)
(declare-fun x_46 () Real)
(declare-fun x_47 () Real)
(declare-fun x_48 () Real)
(declare-fun x_49 () Real)
(declare-fun x_50 () Real)
(declare-fun x_51 () Real)
(declare-fun x_52 () Real)
(declare-fun x_53 () Real)
(declare-fun x_54 () Real)
(declare-fun x_55 () Real)
(declare-fun x_56 () Real)
(declare-fun x_57 () Real)
(declare-fun x_58 () Real)
(declare-fun x_59 () Real)
(declare-fun x_60 () Real)
(declare-fun x_61 () Real)
(declare-fun x_62 () Real)
(declare-fun x_63 () Real)
(declare-fun x_64 () Real)
(declare-fun x_65 () Real)
(declare-fun x_66 () Real)
(declare-fun x_67 () Real)
(declare-fun x_68 () Real)
(declare-fun x_69 () Real)
(declare-fun x_70 () Real)
(declare-fun x_71 () Real)
(declare-fun x_72 () Real)
(declare-fun x_73 () Real)
(declare-fun x_74 () Real)
(declare-fun x_75 () Real)
(declare-fun x_76 () Real)
(declare-fun x_77 () Real)
(declare-fun x_78 () Real)
(declare-fun x_79 () Real)
(declare-fun x_80 () Real)
(declare-fun x_81 () Real)
(declare-fun x_82 () Real)
(declare-fun x_83 () Real)
(declare-fun x_84 () Real)
(declare-fun x_85 () Real)
(declare-fun x_86 () Real)
(declare-fun x_87 () Real)
(declare-fun x_88 () Real)
(declare-fun x_89 () Real)
(declare-fun x_90 () Real)
(declare-fun x_91 () Real)
(declare-fun x_92 () Real)
(declare-fun x_93 () Real)
(declare-fun x_94 () Real)
(declare-fun x_95 () Real)
(declare-fun x_96 () Real)
(declare-fun x_97 () Real)
(declare-fun x_98 () Real)
(declare-fun x_99 () Real)
(declare-fun x_100 () Real)
(declare-fun x_101 () Real)
(declare-fun x_102 () Real)
(declare-fun x_103 () Real)
(declare-fun x_104 () Real)
(declare-fun x_105 () Real)
(declare-fun x_106 () Real)
(declare-fun x_107 () Real)
(declare-fun x_108 () Real)
(declare-fun x_109 () Real)
(declare-fun x_110 () Real)
(declare-fun x_111 () Real)
(declare-fun x_112 () Real)
(declare-fun x_113 () Real)
(declare-fun x_114 () Real)
(declare-fun x_115 () Real)
(declare-fun x_116 () Real)
(declare-fun x_117 () Real)
(declare-fun x_118 () Real)
(declare-fun x_119 () Real)
(declare-fun x_120 () Real)
(declare-fun x_121 () Real)
(declare-fun x_122 () Real)
(declare-fun x_123 () Real)
(declare-fun x_124 () Real)
(assert (let ((?v_141 (= x_113 x_32)) (?v_140 (= x_99 x_44)) (?v_139 (= x_103 x_40)) (?v_118 (= x_100 x_37)) (?v_117 (= x_96 x_41)) (?v_119 (= x_114 x_29)) (?v_125 (= x_101 x_38)) (?v_126 (= x_97 x_42)) (?v_127 (= x_115 x_30)) (?v_132 (= x_102 x_39)) (?v_133 (= x_98 x_43)) (?v_134 (= x_116 x_31)) (?v_198 (<= x_104 x_0)) (?v_199 (<= x_105 x_0)) (?v_200 (<= x_106 x_0)) (?v_201 (<= x_107 x_0)) (?v_106 (+ x_15 1))) (let ((?v_148 (= x_72 ?v_106)) (?v_143 (= x_15 x_14)) (?v_146 (= x_15 x_63)) (?v_107 (+ x_17 1))) (let ((?v_157 (= x_73 ?v_107)) (?v_152 (= x_17 x_16)) (?v_155 (= x_17 x_64)) (?v_135 (= x_70 x_26)) (?v_138 (= x_74 x_19)) (?v_108 (+ x_19 1))) (let ((?v_164 (= x_74 ?v_108)) (?v_136 (= x_120 x_36)) (?v_137 (= x_107 x_18)) (?v_159 (= x_19 x_18)) (?v_162 (= x_19 x_65)) (?v_150 (= x_67 x_20)) (?v_115 (= x_117 x_33)) (?v_112 (= x_104 x_11)) (?v_151 (= x_71 x_12)) (?v_121 (= x_68 x_22)) (?v_122 (= x_118 x_34)) (?v_123 (= x_105 x_14)) (?v_124 (= x_72 x_15)) (?v_128 (= x_69 x_24)) (?v_129 (= x_119 x_35)) (?v_130 (= x_106 x_16)) (?v_131 (= x_73 x_17)) (?v_105 (+ x_12 1))) (let ((?v_116 (= x_71 ?v_105)) (?v_109 (= x_12 x_11)) (?v_113 (= x_12 x_62)) (?v_3 (= x_11 x_0)) (?v_2 (+ (+ x_0 x_4) x_1))) (let ((?v_28 (= x_11 ?v_2)) (?v_4 (= x_14 x_0)) (?v_32 (= x_14 ?v_2)) (?v_5 (= x_16 x_0)) (?v_36 (= x_16 ?v_2)) (?v_6 (= x_18 x_0)) (?v_40 (= x_18 ?v_2)) (?v_15 (not ?v_3))) (let ((?v_18 (not ?v_4)) (?v_21 (not ?v_5)) (?v_24 (not ?v_6)) (?v_27 (<= x_12 x_0)) (?v_31 (<= x_15 x_0)) (?v_35 (<= x_17 x_0)) (?v_39 (<= x_19 x_0)) (?v_55 (not ?v_28))) (let ((?v_43 (and ?v_27 ?v_55)) (?v_56 (not ?v_32))) (let ((?v_46 (and ?v_31 ?v_56)) (?v_57 (not ?v_36))) (let ((?v_49 (and ?v_35 ?v_57)) (?v_58 (not ?v_40))) (let ((?v_52 (and ?v_39 ?v_58)) (?v_210 (= x_104 x_112))) (let ((?v_206 (not ?v_210)) (?v_205 (+ (+ x_112 x_4) x_1))) (let ((?v_231 (= x_104 ?v_205)) (?v_213 (= x_105 x_112))) (let ((?v_207 (not ?v_213)) (?v_235 (= x_105 ?v_205)) (?v_216 (= x_106 x_112))) (let ((?v_208 (not ?v_216)) (?v_239 (= x_106 ?v_205)) (?v_219 (= x_107 x_112))) (let ((?v_209 (not ?v_219)) (?v_243 (= x_107 ?v_205)) (?v_230 (not (<= x_71 x_112))) (?v_234 (not (<= x_72 x_112))) (?v_238 (not (<= x_73 x_112))) (?v_242 (not (<= x_74 x_112)))) (let ((?v_246 (or ?v_230 ?v_231)) (?v_249 (or ?v_234 ?v_235)) (?v_252 (or ?v_238 ?v_239)) (?v_255 (or ?v_242 ?v_243)) (?v_66 (- x_71 x_2))) (let ((?v_166 (<= ?v_66 x_75)) (?v_167 (<= ?v_66 x_76)) (?v_168 (<= ?v_66 x_77)) (?v_169 (<= ?v_66 x_78)) (?v_67 (- x_72 x_2))) (let ((?v_170 (<= ?v_67 x_79)) (?v_171 (<= ?v_67 x_80)) (?v_172 (<= ?v_67 x_81)) (?v_173 (<= ?v_67 x_82)) (?v_68 (- x_73 x_2))) (let ((?v_174 (<= ?v_68 x_83)) (?v_175 (<= ?v_68 x_84)) (?v_176 (<= ?v_68 x_85)) (?v_177 (<= ?v_68 x_86)) (?v_69 (- x_74 x_2))) (let ((?v_178 (<= ?v_69 x_87)) (?v_179 (<= ?v_69 x_88)) (?v_180 (<= ?v_69 x_89)) (?v_181 (<= ?v_69 x_90)) (?v_70 (+ x_71 x_2))) (let ((?v_182 (<= x_75 ?v_70)) (?v_183 (<= x_76 ?v_70)) (?v_184 (<= x_77 ?v_70)) (?v_185 (<= x_78 ?v_70)) (?v_71 (+ x_72 x_2))) (let ((?v_186 (<= x_79 ?v_71)) (?v_187 (<= x_80 ?v_71)) (?v_188 (<= x_81 ?v_71)) (?v_189 (<= x_82 ?v_71)) (?v_72 (+ x_73 x_2))) (let ((?v_190 (<= x_83 ?v_72)) (?v_191 (<= x_84 ?v_72)) (?v_192 (<= x_85 ?v_72)) (?v_193 (<= x_86 ?v_72)) (?v_73 (+ x_74 x_2))) (let ((?v_194 (<= x_87 ?v_73)) (?v_195 (<= x_88 ?v_73)) (?v_196 (<= x_89 ?v_73)) (?v_197 (<= x_90 ?v_73)) (?v_120 (and (not ?v_109) (not ?v_113))) (?v_149 (and (not ?v_143) (not ?v_146))) (?v_158 (and (not ?v_152) (not ?v_155))) (?v_165 (and (not ?v_159) (not ?v_162))) (?v_0 (- x_0 x_5)) (?v_1 (- x_0 x_10)) (?v_7 (- x_20 x_21)) (?v_8 (- x_12 x_6)) (?v_9 (- x_22 x_23)) (?v_10 (- x_15 x_7)) (?v_11 (- x_24 x_25)) (?v_12 (- x_17 x_8)) (?v_13 (- x_26 x_27)) (?v_14 (- x_19 x_9)) (?v_16 (- x_20 x_29)) (?v_17 (- x_12 x_0)) (?v_19 (- x_22 x_30)) (?v_20 (- x_15 x_0)) (?v_22 (- x_24 x_31)) (?v_23 (- x_17 x_0)) (?v_25 (- x_26 x_32)) (?v_26 (- x_19 x_0)) (?v_44 (- x_29 x_21))) (let ((?v_29 (* ?v_44 1000)) (?v_30 (* (- x_29 x_27) 1000)) (?v_33 (* (- x_30 x_21) 1000)) (?v_34 (* (- x_30 x_27) 1000)) (?v_37 (* (- x_31 x_21) 1000)) (?v_38 (* (- x_31 x_27) 1000)) (?v_41 (* (- x_32 x_21) 1000)) (?v_53 (- x_32 x_27))) (let ((?v_42 (* ?v_53 1000)) (?v_45 (- x_0 x_6)) (?v_47 (- x_30 x_23)) (?v_48 (- x_0 x_7)) (?v_50 (- x_31 x_25)) (?v_51 (- x_0 x_8)) (?v_54 (- x_0 x_9)) (?v_114 (+ x_33 x_1)) (?v_147 (+ x_34 x_1)) (?v_156 (+ x_35 x_1)) (?v_163 (+ x_36 x_1)) (?v_59 (- x_41 x_29)) (?v_61 (- x_42 x_30)) (?v_63 (- x_43 x_31)) (?v_64 (- x_44 x_32)) (?v_75 (- x_67 x_96)) (?v_76 (- x_71 x_100)) (?v_77 (- x_68 x_97)) (?v_78 (- x_72 x_101)) (?v_79 (- x_69 x_98)) (?v_80 (- x_73 x_102)) (?v_81 (- x_70 x_99)) (?v_82 (- x_74 x_103)) (?v_83 (+ x_71 1)) (?v_84 (+ x_72 1)) (?v_85 (+ x_73 1)) (?v_86 (+ x_74 1)) (?v_88 (- x_12 x_2)) (?v_89 (- x_15 x_2)) (?v_90 (- x_17 x_2)) (?v_91 (- x_19 x_2)) (?v_92 (+ x_12 x_2)) (?v_93 (+ x_15 x_2)) (?v_94 (+ x_17 x_2)) (?v_95 (+ x_19 x_2)) (?v_97 (- x_20 x_41)) (?v_98 (- x_12 x_37)) (?v_99 (- x_22 x_42)) (?v_100 (- x_15 x_38)) (?v_101 (- x_24 x_43)) (?v_102 (- x_17 x_39)) (?v_103 (- x_26 x_44)) (?v_104 (- x_19 x_40)) (?v_110 (* x_117 2)) (?v_111 (+ x_45 x_57)) (?v_144 (* x_118 2)) (?v_145 (+ x_46 x_58)) (?v_153 (* x_119 2)) (?v_154 (+ x_47 x_59)) (?v_160 (* x_120 2)) (?v_161 (+ x_48 x_60)) (?v_202 (- x_112 x_5)) (?v_203 (- x_112 x_10)) (?v_204 (+ x_112 x_1)) (?v_211 (- x_67 x_92)) (?v_212 (- x_71 x_121)) (?v_214 (- x_68 x_93)) (?v_215 (- x_72 x_122)) (?v_217 (- x_69 x_94)) (?v_218 (- x_73 x_123)) (?v_220 (- x_70 x_95)) (?v_221 (- x_74 x_124)) (?v_222 (- x_67 x_114)) (?v_223 (- x_71 x_112)) (?v_224 (- x_68 x_115)) (?v_225 (- x_72 x_112)) (?v_226 (- x_69 x_116)) (?v_227 (- x_73 x_112)) (?v_228 (- x_70 x_113)) (?v_229 (- x_74 x_112)) (?v_247 (- x_114 x_92))) (let ((?v_232 (* ?v_247 1000)) (?v_233 (* (- x_114 x_95) 1000)) (?v_236 (* (- x_115 x_92) 1000)) (?v_237 (* (- x_115 x_95) 1000)) (?v_240 (* (- x_116 x_92) 1000)) (?v_241 (* (- x_116 x_95) 1000)) (?v_244 (* (- x_113 x_92) 1000)) (?v_256 (- x_113 x_95))) (let ((?v_245 (* ?v_256 1000)) (?v_248 (- x_112 x_121)) (?v_250 (- x_115 x_93)) (?v_251 (- x_112 x_122)) (?v_253 (- x_116 x_94)) (?v_254 (- x_112 x_123)) (?v_257 (- x_112 x_124)) (?v_258 (- x_96 x_114)) (?v_259 (- x_97 x_115)) (?v_260 (- x_98 x_116)) (?v_261 (- x_99 x_113)) (?v_60 (* (* x_1 999) (/ 1 1000))) (?v_62 (* (* x_1 1001) (/ 1 1000))) (?v_65 (+ x_66 (/ 1001 1000))) (?v_74 (+ x_91 (/ 1001 1000))) (?v_87 (+ x_28 (/ 1001 1000))) (?v_96 (+ x_61 (/ 1001 1000))) (?v_142 (+ x_28 (/ 999 1000)))) (and (and (and (and (and (and (and (and (and (and (and (and (and (and (and (and (and (and (and (and (and (and (and (and (and (and (and (and (and (and (and (and (and (and (and (and (and (and (and (and (and (and (and (and (and (and (and (and (and (and (and (and (and (and (and (and (and (and (and (and (and (and (and (and (and (and (and (and (and (and (and (and (and (and (and (and (and (and (and (and (and (and (and (and (and (and (and (and (and (and (and (and (and (and (and (and (and (and (and (and (and (and (and (and (and (and (and (and (and (and (and (and (and (and (and (and (and (and (and (and (and (and (and (and (and (and (and (and (and (and (and (and (and (and (and (and (and (and (and (and (and (and (and (and (and (and (and (and (and (and (and (and (and (and (and (and (and (and (and (and (and (and (and (and (and (and (and (and (and (and (and (and (and (and (and (and (and (and (and (and (and (and (and (and (and (and (and (and (and (and (and (and (and (and (and (and (and (and (and (and (and (and (and (and (and (and (and (and (and (and (not (<= x_1 0)) (not (<= x_2 0))) (not (< x_3 (+ x_2 (* (* (+ (* (* x_1 1) (/ 1 2)) 1) 1001) (/ 1 999)))))) (not (<= x_4 0))) (< x_5 (- (* (* (- (- x_1 x_3) 1) 999) (/ 1 2)) 1))) (not (< x_5 (* (* (+ (+ (+ x_4 x_2) x_3) (/ 1501 1000)) 1001) (/ 1 999))))) (not (<= x_10 0))) (<= x_10 (- x_4 (+ (+ x_2 (* (* (+ x_1 2) 1001) (/ 1 999))) (/ 1 2))))) (<= ?v_0 x_6)) (<= ?v_0 x_7)) (<= ?v_0 x_8)) (<= ?v_0 x_9)) (<= x_6 ?v_1)) (<= x_7 ?v_1)) (<= x_8 ?v_1)) (<= x_9 ?v_1)) (<= (- x_6 x_6) x_3)) (<= (- x_7 x_6) x_3)) (<= (- x_8 x_6) x_3)) (<= (- x_9 x_6) x_3)) (<= (- x_6 x_7) x_3)) (<= (- x_7 x_7) x_3)) (<= (- x_8 x_7) x_3)) (<= (- x_9 x_7) x_3)) (<= (- x_6 x_8) x_3)) (<= (- x_7 x_8) x_3)) (<= (- x_8 x_8) x_3)) (<= (- x_9 x_8) x_3)) (<= (- x_6 x_9) x_3)) (<= (- x_7 x_9) x_3)) (<= (- x_8 x_9) x_3)) (<= (- x_9 x_9) x_3)) (or (and ?v_3 (<= x_12 x_13)) ?v_28)) (or (and ?v_4 (<= x_15 x_13)) ?v_32)) (or (and ?v_5 (<= x_17 x_13)) ?v_36)) (or (and ?v_6 (<= x_19 x_13)) ?v_40)) (or (or (or ?v_3 ?v_4) ?v_5) ?v_6)) (or ?v_15 (and (<= (* (* ?v_8 999) (/ 1 1000)) ?v_7) (<= ?v_7 (* (* ?v_8 1001) (/ 1 1000)))))) (or ?v_18 (and (<= (* (* ?v_10 999) (/ 1 1000)) ?v_9) (<= ?v_9 (* (* ?v_10 1001) (/ 1 1000)))))) (or ?v_21 (and (<= (* (* ?v_12 999) (/ 1 1000)) ?v_11) (<= ?v_11 (* (* ?v_12 1001) (/ 1 1000)))))) (or ?v_24 (and (<= (* (* ?v_14 999) (/ 1 1000)) ?v_13) (<= ?v_13 (* (* ?v_14 1001) (/ 1 1000)))))) (or (or ?v_15 ?v_27) (and (and (not (< x_28 x_29)) (<= (* (* ?v_17 999) (/ 1 1000)) ?v_16)) (<= ?v_16 (* (* ?v_17 1001) (/ 1 1000)))))) (or (or ?v_18 ?v_31) (and (and (not (< x_28 x_30)) (<= (* (* ?v_20 999) (/ 1 1000)) ?v_19)) (<= ?v_19 (* (* ?v_20 1001) (/ 1 1000)))))) (or (or ?v_21 ?v_35) (and (and (not (< x_28 x_31)) (<= (* (* ?v_23 999) (/ 1 1000)) ?v_22)) (<= ?v_22 (* (* ?v_23 1001) (/ 1 1000)))))) (or (or ?v_24 ?v_39) (and (and (not (< x_28 x_32)) (<= (* (* ?v_26 999) (/ 1 1000)) ?v_25)) (<= ?v_25 (* (* ?v_26 1001) (/ 1 1000)))))) (or ?v_43 (and (<= x_33 (+ (+ (* (* (+ (+ (+ x_6 (* ?v_29 (/ 1 999))) x_9) (* ?v_30 (/ 1 999))) 1) (/ 1 2)) x_2) (/ 3001 1998))) (not (< x_33 (- (- (* (* (+ (+ (+ x_6 (* ?v_29 (/ 1 1001))) x_9) (* ?v_30 (/ 1 1001))) 1) (/ 1 2)) x_2) (/ 1 2))))))) (or ?v_46 (and (<= x_34 (+ (+ (* (* (+ (+ (+ x_6 (* ?v_33 (/ 1 999))) x_9) (* ?v_34 (/ 1 999))) 1) (/ 1 2)) x_2) (/ 3001 1998))) (not (< x_34 (- (- (* (* (+ (+ (+ x_6 (* ?v_33 (/ 1 1001))) x_9) (* ?v_34 (/ 1 1001))) 1) (/ 1 2)) x_2) (/ 1 2))))))) (or ?v_49 (and (<= x_35 (+ (+ (* (* (+ (+ (+ x_6 (* ?v_37 (/ 1 999))) x_9) (* ?v_38 (/ 1 999))) 1) (/ 1 2)) x_2) (/ 3001 1998))) (not (< x_35 (- (- (* (* (+ (+ (+ x_6 (* ?v_37 (/ 1 1001))) x_9) (* ?v_38 (/ 1 1001))) 1) (/ 1 2)) x_2) (/ 1 2))))))) (or ?v_52 (and (<= x_36 (+ (+ (* (* (+ (+ (+ x_6 (* ?v_41 (/ 1 999))) x_9) (* ?v_42 (/ 1 999))) 1) (/ 1 2)) x_2) (/ 3001 1998))) (not (< x_36 (- (- (* (* (+ (+ (+ x_6 (* ?v_41 (/ 1 1001))) x_9) (* ?v_42 (/ 1 1001))) 1) (/ 1 2)) x_2) (/ 1 2))))))) (or ?v_43 (and (<= (* (* ?v_45 999) (/ 1 1000)) ?v_44) (<= ?v_44 (* (* ?v_45 1001) (/ 1 1000)))))) (or ?v_46 (and (<= (* (* ?v_48 999) (/ 1 1000)) ?v_47) (<= ?v_47 (* (* ?v_48 1001) (/ 1 1000)))))) (or ?v_49 (and (<= (* (* ?v_51 999) (/ 1 1000)) ?v_50) (<= ?v_50 (* (* ?v_51 1001) (/ 1 1000)))))) (or ?v_52 (and (<= (* (* ?v_54 999) (/ 1 1000)) ?v_53) (<= ?v_53 (* (* ?v_54 1001) (/ 1 1000)))))) (or ?v_55 (= x_37 ?v_114))) (or ?v_56 (= x_38 ?v_147))) (or ?v_57 (= x_39 ?v_156))) (or ?v_58 (= x_40 ?v_163))) (or ?v_55 (and (<= ?v_60 ?v_59) (<= ?v_59 ?v_62)))) (or ?v_56 (and (<= ?v_60 ?v_61) (<= ?v_61 ?v_62)))) (or ?v_57 (and (<= ?v_60 ?v_63) (<= ?v_63 ?v_62)))) (or ?v_58 (and (<= ?v_60 ?v_64) (<= ?v_64 ?v_62)))) (<= x_66 x_67)) (<= x_66 x_68)) (<= x_66 x_69)) (<= x_66 x_70)) (<= x_67 ?v_65)) (<= x_68 ?v_65)) (<= x_69 ?v_65)) (<= x_70 ?v_65)) ?v_166) ?v_167) ?v_168) ?v_169) ?v_170) ?v_171) ?v_172) ?v_173) ?v_174) ?v_175) ?v_176) ?v_177) ?v_178) ?v_179) ?v_180) ?v_181) ?v_182) ?v_183) ?v_184) ?v_185) ?v_186) ?v_187) ?v_188) ?v_189) ?v_190) ?v_191) ?v_192) ?v_193) ?v_194) ?v_195) ?v_196) ?v_197) (<= x_91 x_66)) (<= x_91 x_92)) (<= x_91 x_93)) (<= x_91 x_94)) (<= x_91 x_95)) (<= x_92 ?v_74)) (<= x_93 ?v_74)) (<= x_94 ?v_74)) (<= x_95 ?v_74)) (<= x_96 x_66)) (<= x_97 x_66)) (<= x_98 x_66)) (<= x_99 x_66)) (<= (* (* ?v_76 999) (/ 1 1000)) ?v_75)) (<= (* (* ?v_78 999) (/ 1 1000)) ?v_77)) (<= (* (* ?v_80 999) (/ 1 1000)) ?v_79)) (<= (* (* ?v_82 999) (/ 1 1000)) ?v_81)) (<= ?v_75 (* (* ?v_76 1001) (/ 1 1000)))) (<= ?v_77 (* (* ?v_78 1001) (/ 1 1000)))) (<= ?v_79 (* (* ?v_80 1001) (/ 1 1000)))) (<= ?v_81 (* (* ?v_82 1001) (/ 1 1000)))) (or (or (not (<= x_71 x_104)) (not (< x_104 ?v_83))) (= x_71 x_104))) (or (or (not (<= x_72 x_105)) (not (< x_105 ?v_84))) (= x_72 x_105))) (or (or (not (<= x_73 x_106)) (not (< x_106 ?v_85))) (= x_73 x_106))) (or (or (not (<= x_74 x_107)) (not (< x_107 ?v_86))) (= x_74 x_107))) (or (or (not (<= x_71 x_108)) (not (< x_108 ?v_83))) (= x_71 x_108))) (or (or (not (<= x_72 x_109)) (not (< x_109 ?v_84))) (= x_72 x_109))) (or (or (not (<= x_73 x_110)) (not (< x_110 ?v_85))) (= x_73 x_110))) (or (or (not (<= x_74 x_111)) (not (< x_111 ?v_86))) (= x_74 x_111))) (<= x_28 x_20)) (<= x_28 x_22)) (<= x_28 x_24)) (<= x_28 x_26)) (<= x_20 ?v_87)) (<= x_22 ?v_87)) (<= x_24 ?v_87)) (<= x_26 ?v_87)) (<= ?v_88 x_45)) (<= ?v_88 x_46)) (<= ?v_88 x_47)) (<= ?v_88 x_48)) (<= ?v_89 x_49)) (<= ?v_89 x_50)) (<= ?v_89 x_51)) (<= ?v_89 x_52)) (<= ?v_90 x_53)) (<= ?v_90 x_54)) (<= ?v_90 x_55)) (<= ?v_90 x_56)) (<= ?v_91 x_57)) (<= ?v_91 x_58)) (<= ?v_91 x_59)) (<= ?v_91 x_60)) (<= x_45 ?v_92)) (<= x_46 ?v_92)) (<= x_47 ?v_92)) (<= x_48 ?v_92)) (<= x_49 ?v_93)) (<= x_50 ?v_93)) (<= x_51 ?v_93)) (<= x_52 ?v_93)) (<= x_53 ?v_94)) (<= x_54 ?v_94)) (<= x_55 ?v_94)) (<= x_56 ?v_94)) (<= x_57 ?v_95)) (<= x_58 ?v_95)) (<= x_59 ?v_95)) (<= x_60 ?v_95)) (<= x_61 x_28)) (<= x_61 x_21)) (<= x_61 x_23)) (<= x_61 x_25)) (<= x_61 x_27)) (<= x_21 ?v_96)) (<= x_23 ?v_96)) (<= x_25 ?v_96)) (<= x_27 ?v_96)) (<= x_41 x_28)) (<= x_42 x_28)) (<= x_43 x_28)) (<= x_44 x_28)) (<= (* (* ?v_98 999) (/ 1 1000)) ?v_97)) (<= (* (* ?v_100 999) (/ 1 1000)) ?v_99)) (<= (* (* ?v_102 999) (/ 1 1000)) ?v_101)) (<= (* (* ?v_104 999) (/ 1 1000)) ?v_103)) (<= ?v_97 (* (* ?v_98 1001) (/ 1 1000)))) (<= ?v_99 (* (* ?v_100 1001) (/ 1 1000)))) (<= ?v_101 (* (* ?v_102 1001) (/ 1 1000)))) (<= ?v_103 (* (* ?v_104 1001) (/ 1 1000)))) (or (or (not (<= x_12 x_11)) (not (< x_11 ?v_105))) ?v_109)) (or (or (not (<= x_15 x_14)) (not (< x_14 ?v_106))) ?v_143)) (or (or (not (<= x_17 x_16)) (not (< x_16 ?v_107))) ?v_152)) (or (or (not (<= x_19 x_18)) (not (< x_18 ?v_108))) ?v_159)) (or (or (not (<= x_12 x_62)) (not (< x_62 ?v_105))) ?v_113)) (or (or (not (<= x_15 x_63)) (not (< x_63 ?v_106))) ?v_146)) (or (or (not (<= x_17 x_64)) (not (< x_64 ?v_107))) ?v_155)) (or (or (not (<= x_19 x_65)) (not (< x_65 ?v_108))) ?v_162)) (= x_108 (+ x_104 x_1))) (= x_109 (+ x_105 x_1))) (= x_110 (+ x_106 x_1))) (= x_111 (+ x_107 x_1))) (= x_62 (+ x_11 x_1))) (= x_63 (+ x_14 x_1))) (= x_64 (+ x_16 x_1))) (= x_65 (+ x_18 x_1))) (= x_13 (+ x_0 x_1))) (or (and (and (and (and (and (and (and (and (and (and (and (and (and (and (and (and (and (and (and (and (and (and (and (and (and (and (and (and (and (and (and (and (and (and (and (and (and (and (and (and (and (and (and (and (and (and (and (and (and (and (and (and (and (< x_28 x_20) (< x_28 x_22)) (< x_28 x_24)) (< x_28 x_26)) (< x_28 x_66)) (<= x_66 x_20)) (<= x_66 x_22)) (<= x_66 x_24)) (<= x_66 x_26)) (or (or (or (= x_66 x_20) (= x_66 x_22)) (= x_66 x_24)) (= x_66 x_26))) ?v_150) ?v_121) ?v_128) ?v_135) ?v_115) ?v_122) ?v_129) ?v_136) ?v_112) ?v_123) ?v_130) ?v_137) ?v_151) ?v_124) ?v_131) ?v_138) ?v_118) ?v_125) ?v_132) ?v_139) ?v_117) ?v_126) ?v_133) ?v_140) ?v_119) ?v_127) ?v_134) ?v_141) (= x_75 x_45)) (= x_79 x_49)) (= x_83 x_53)) (= x_87 x_57)) (= x_76 x_46)) (= x_80 x_50)) (= x_84 x_54)) (= x_88 x_58)) (= x_77 x_47)) (= x_81 x_51)) (= x_85 x_55)) (= x_89 x_59)) (= x_78 x_48)) (= x_82 x_52)) (= x_86 x_56)) (= x_90 x_60)) (and (and (and (and (and (and (and (and (and (and (and (and (and (and (and (and (and (and (and (and (and (and (and (and (and (and (and (and (and (and (and (and (and (or (or (or (and (and (and (and (and (and (and (and (and (and (and (and (and (and (and (and (and (and (and (and (and (and (and (and (and (= x_28 x_20) (<= ?v_142 x_67)) (<= x_67 ?v_87)) (or (or (and (and (and (and ?v_109 (<= (- ?v_111 1) ?v_110)) (<= ?v_110 (+ ?v_111 1))) ?v_116) ?v_112) (and (and (and ?v_113 (= x_71 (+ ?v_114 1))) (= x_104 (+ (+ x_11 x_4) x_1))) ?v_115)) (and (and (and ?v_120 ?v_116) ?v_115) ?v_112))) (or (or (and (and (and ?v_109 (= x_114 x_28)) ?v_117) ?v_118) (and (and (and ?v_113 (= x_96 x_28)) (= x_100 (- x_71 1))) ?v_119)) (and (and (and ?v_120 ?v_119) ?v_117) ?v_118))) ?v_121) ?v_122) ?v_123) ?v_124) ?v_125) ?v_126) ?v_127) ?v_128) ?v_129) ?v_130) ?v_131) ?v_132) ?v_133) ?v_134) ?v_135) ?v_136) ?v_137) ?v_138) ?v_139) ?v_140) ?v_141) (and (and (and (and (and (and (and (and (and (and (and (and (and (and (and (and (and (and (and (and (and (and (and (and (and (= x_28 x_22) (<= ?v_142 x_68)) (<= x_68 ?v_87)) (or (or (and (and (and (and ?v_143 (<= (- ?v_145 1) ?v_144)) (<= ?v_144 (+ ?v_145 1))) ?v_148) ?v_123) (and (and (and ?v_146 (= x_72 (+ ?v_147 1))) (= x_105 (+ (+ x_14 x_4) x_1))) ?v_122)) (and (and (and ?v_149 ?v_148) ?v_122) ?v_123))) (or (or (and (and (and ?v_143 (= x_115 x_28)) ?v_126) ?v_125) (and (and (and ?v_146 (= x_97 x_28)) (= x_101 (- x_72 1))) ?v_127)) (and (and (and ?v_149 ?v_127) ?v_126) ?v_125))) ?v_150) ?v_115) ?v_112) ?v_151) ?v_118) ?v_117) ?v_119) ?v_128) ?v_129) ?v_130) ?v_131) ?v_132) ?v_133) ?v_134) ?v_135) ?v_136) ?v_137) ?v_138) ?v_139) ?v_140) ?v_141)) (and (and (and (and (and (and (and (and (and (and (and (and (and (and (and (and (and (and (and (and (and (and (and (and (and (= x_28 x_24) (<= ?v_142 x_69)) (<= x_69 ?v_87)) (or (or (and (and (and (and ?v_152 (<= (- ?v_154 1) ?v_153)) (<= ?v_153 (+ ?v_154 1))) ?v_157) ?v_130) (and (and (and ?v_155 (= x_73 (+ ?v_156 1))) (= x_106 (+ (+ x_16 x_4) x_1))) ?v_129)) (and (and (and ?v_158 ?v_157) ?v_129) ?v_130))) (or (or (and (and (and ?v_152 (= x_116 x_28)) ?v_133) ?v_132) (and (and (and ?v_155 (= x_98 x_28)) (= x_102 (- x_73 1))) ?v_134)) (and (and (and ?v_158 ?v_134) ?v_133) ?v_132))) ?v_150) ?v_115) ?v_112) ?v_151) ?v_118) ?v_117) ?v_119) ?v_121) ?v_122) ?v_123) ?v_124) ?v_125) ?v_126) ?v_127) ?v_135) ?v_136) ?v_137) ?v_138) ?v_139) ?v_140) ?v_141)) (and (and (and (and (and (and (and (and (and (and (and (and (and (and (and (and (and (and (and (and (and (and (and (and (and (= x_28 x_26) (<= ?v_142 x_70)) (<= x_70 ?v_87)) (or (or (and (and (and (and ?v_159 (<= (- ?v_161 1) ?v_160)) (<= ?v_160 (+ ?v_161 1))) ?v_164) ?v_137) (and (and (and ?v_162 (= x_74 (+ ?v_163 1))) (= x_107 (+ (+ x_18 x_4) x_1))) ?v_136)) (and (and (and ?v_165 ?v_164) ?v_136) ?v_137))) (or (or (and (and (and ?v_159 (= x_113 x_28)) ?v_140) ?v_139) (and (and (and ?v_162 (= x_99 x_28)) (= x_103 (- x_74 1))) ?v_141)) (and (and (and ?v_165 ?v_141) ?v_140) ?v_139))) ?v_150) ?v_115) ?v_112) ?v_151) ?v_118) ?v_117) ?v_119) ?v_121) ?v_122) ?v_123) ?v_124) ?v_125) ?v_126) ?v_127) ?v_128) ?v_129) ?v_130) ?v_131) ?v_132) ?v_133) ?v_134)) ?v_166) ?v_167) ?v_168) ?v_169) ?v_170) ?v_171) ?v_172) ?v_173) ?v_174) ?v_175) ?v_176) ?v_177) ?v_178) ?v_179) ?v_180) ?v_181) ?v_182) ?v_183) ?v_184) ?v_185) ?v_186) ?v_187) ?v_188) ?v_189) ?v_190) ?v_191) ?v_192) ?v_193) ?v_194) ?v_195) ?v_196) ?v_197) (= x_66 x_28)))) (or (and (and (and (and (and (and (and (and (and (and (and (and (and (not ?v_198) (not ?v_199)) (not ?v_200)) (not ?v_201)) (= x_91 x_66)) (= x_121 x_71)) (= x_122 x_72)) (= x_123 x_73)) (= x_124 x_74)) (= x_92 x_67)) (= x_93 x_68)) (= x_94 x_69)) (= x_95 x_70)) (= x_112 ?v_2)) (and (and (and (and (and (and (and (and (and (and (or (or (or ?v_198 ?v_199) ?v_200) ?v_201) (= x_112 x_0)) (= x_91 x_61)) (= x_92 x_21)) (= x_93 x_23)) (= x_94 x_25)) (= x_95 x_27)) (= x_121 x_6)) (= x_122 x_7)) (= x_123 x_8)) (= x_124 x_9)))) (or (or (or (or (or (or (or (or (or (or (or (or (or (or (or (or (or (or (or (or (or (or (or (or (or (or (or (or (or (or (or (or (or (or (or (or (or (or (or (or (or (or (or (or (or (or (or (or (or (or (or (or (not (<= ?v_202 x_121)) (not (<= ?v_202 x_122))) (not (<= ?v_202 x_123))) (not (<= ?v_202 x_124))) (not (<= x_121 ?v_203))) (not (<= x_122 ?v_203))) (not (<= x_123 ?v_203))) (not (<= x_124 ?v_203))) (not (<= (- x_121 x_121) x_3))) (not (<= (- x_122 x_121) x_3))) (not (<= (- x_123 x_121) x_3))) (not (<= (- x_124 x_121) x_3))) (not (<= (- x_121 x_122) x_3))) (not (<= (- x_122 x_122) x_3))) (not (<= (- x_123 x_122) x_3))) (not (<= (- x_124 x_122) x_3))) (not (<= (- x_121 x_123) x_3))) (not (<= (- x_122 x_123) x_3))) (not (<= (- x_123 x_123) x_3))) (not (<= (- x_124 x_123) x_3))) (not (<= (- x_121 x_124) x_3))) (not (<= (- x_122 x_124) x_3))) (not (<= (- x_123 x_124) x_3))) (not (<= (- x_124 x_124) x_3))) (and (or ?v_206 (not (<= x_71 ?v_204))) (not ?v_231))) (and (or ?v_207 (not (<= x_72 ?v_204))) (not ?v_235))) (and (or ?v_208 (not (<= x_73 ?v_204))) (not ?v_239))) (and (or ?v_209 (not (<= x_74 ?v_204))) (not ?v_243))) (and (and (and ?v_206 ?v_207) ?v_208) ?v_209)) (and ?v_210 (or (not (<= (* (* ?v_212 999) (/ 1 1000)) ?v_211)) (not (<= ?v_211 (* (* ?v_212 1001) (/ 1 1000))))))) (and ?v_213 (or (not (<= (* (* ?v_215 999) (/ 1 1000)) ?v_214)) (not (<= ?v_214 (* (* ?v_215 1001) (/ 1 1000))))))) (and ?v_216 (or (not (<= (* (* ?v_218 999) (/ 1 1000)) ?v_217)) (not (<= ?v_217 (* (* ?v_218 1001) (/ 1 1000))))))) (and ?v_219 (or (not (<= (* (* ?v_221 999) (/ 1 1000)) ?v_220)) (not (<= ?v_220 (* (* ?v_221 1001) (/ 1 1000))))))) (and (and ?v_210 ?v_230) (or (or (< x_66 x_114) (not (<= (* (* ?v_223 999) (/ 1 1000)) ?v_222))) (not (<= ?v_222 (* (* ?v_223 1001) (/ 1 1000))))))) (and (and ?v_213 ?v_234) (or (or (< x_66 x_115) (not (<= (* (* ?v_225 999) (/ 1 1000)) ?v_224))) (not (<= ?v_224 (* (* ?v_225 1001) (/ 1 1000))))))) (and (and ?v_216 ?v_238) (or (or (< x_66 x_116) (not (<= (* (* ?v_227 999) (/ 1 1000)) ?v_226))) (not (<= ?v_226 (* (* ?v_227 1001) (/ 1 1000))))))) (and (and ?v_219 ?v_242) (or (or (< x_66 x_113) (not (<= (* (* ?v_229 999) (/ 1 1000)) ?v_228))) (not (<= ?v_228 (* (* ?v_229 1001) (/ 1 1000))))))) (and ?v_246 (or (not (<= x_117 (+ (+ (* (* (+ (+ (+ x_121 (* ?v_232 (/ 1 999))) x_124) (* ?v_233 (/ 1 999))) 1) (/ 1 2)) x_2) (/ 3001 1998)))) (< x_117 (- (- (* (* (+ (+ (+ x_121 (* ?v_232 (/ 1 1001))) x_124) (* ?v_233 (/ 1 1001))) 1) (/ 1 2)) x_2) (/ 1 2)))))) (and ?v_249 (or (not (<= x_118 (+ (+ (* (* (+ (+ (+ x_121 (* ?v_236 (/ 1 999))) x_124) (* ?v_237 (/ 1 999))) 1) (/ 1 2)) x_2) (/ 3001 1998)))) (< x_118 (- (- (* (* (+ (+ (+ x_121 (* ?v_236 (/ 1 1001))) x_124) (* ?v_237 (/ 1 1001))) 1) (/ 1 2)) x_2) (/ 1 2)))))) (and ?v_252 (or (not (<= x_119 (+ (+ (* (* (+ (+ (+ x_121 (* ?v_240 (/ 1 999))) x_124) (* ?v_241 (/ 1 999))) 1) (/ 1 2)) x_2) (/ 3001 1998)))) (< x_119 (- (- (* (* (+ (+ (+ x_121 (* ?v_240 (/ 1 1001))) x_124) (* ?v_241 (/ 1 1001))) 1) (/ 1 2)) x_2) (/ 1 2)))))) (and ?v_255 (or (not (<= x_120 (+ (+ (* (* (+ (+ (+ x_121 (* ?v_244 (/ 1 999))) x_124) (* ?v_245 (/ 1 999))) 1) (/ 1 2)) x_2) (/ 3001 1998)))) (< x_120 (- (- (* (* (+ (+ (+ x_121 (* ?v_244 (/ 1 1001))) x_124) (* ?v_245 (/ 1 1001))) 1) (/ 1 2)) x_2) (/ 1 2)))))) (and ?v_246 (or (not (<= (* (* ?v_248 999) (/ 1 1000)) ?v_247)) (not (<= ?v_247 (* (* ?v_248 1001) (/ 1 1000))))))) (and ?v_249 (or (not (<= (* (* ?v_251 999) (/ 1 1000)) ?v_250)) (not (<= ?v_250 (* (* ?v_251 1001) (/ 1 1000))))))) (and ?v_252 (or (not (<= (* (* ?v_254 999) (/ 1 1000)) ?v_253)) (not (<= ?v_253 (* (* ?v_254 1001) (/ 1 1000))))))) (and ?v_255 (or (not (<= (* (* ?v_257 999) (/ 1 1000)) ?v_256)) (not (<= ?v_256 (* (* ?v_257 1001) (/ 1 1000))))))) (and ?v_231 (not (= x_100 (+ x_117 x_1))))) (and ?v_235 (not (= x_101 (+ x_118 x_1))))) (and ?v_239 (not (= x_102 (+ x_119 x_1))))) (and ?v_243 (not (= x_103 (+ x_120 x_1))))) (and ?v_231 (or (not (<= ?v_60 ?v_258)) (not (<= ?v_258 ?v_62))))) (and ?v_235 (or (not (<= ?v_60 ?v_259)) (not (<= ?v_259 ?v_62))))) (and ?v_239 (or (not (<= ?v_60 ?v_260)) (not (<= ?v_260 ?v_62))))) (and ?v_243 (or (not (<= ?v_60 ?v_261)) (not (<= ?v_261 ?v_62))))))))))))))))))))))))))))))))))))
(check-sat)
(exit)
